
<<< setup



Le degré maximum du graphe est : 26


Le nombre d'arrètes du graphe simple correspondant est : 415

<<< generate

 ! ----------------------------------------------------------------------------
 ! Minimization problem - 51 variables, 575 constraints
 ! Preprocessing : 413 extractables eliminated, 197 constraints generated
 ! Initial process time : 0,00s (0,00s extraction + 0,00s propagation)
 !  . Log search space  : 290,7 (before), 245,2 (after)
 !  . Memory usage      : 851,7 Kb (before), 915,8 Kb (after)
 !  . Variables fixed   : 5
 ! ----------------------------------------------------------------------------
 !   Branches  Non-fixed                Branch decision                   Best
 *         46      0,00s                         -                           9
        1 000         19                  c(38)  =    2  F                   9
 *      1 121      0,03s                   c(9)  =    5                      8
        2 000         23                  c(21)  =    5                      8
        3 000         24                  c(19)  =    5                      8
        4 000         22                  c(33)  =    4  F                   8
 *      4 232      0,15s                   c(9)  =    2                      7
 ! Search terminated, replaying optimal solution
 ! ----------------------------------------------------------------------------
 ! Solution status        : Terminated normally, optimal found (tol. = 0)
 ! Number of branches     : 4 232
 ! Number of fails        : 2 087
 ! Total memory usage     : 1,6 Mb (1,1 Mb CP Optimizer + 0,6 Mb Concert)
 ! Time spent in solve    : 0,15s (0,15s engine + 0,00s extraction)
 ! Search speed (br. / s) : 28 213,3
 ! ----------------------------------------------------------------------------

<<< solve


OBJECTIVE: 7
coloration : [1 2 3 4 5 3 3 3 2 6 7 2 2 3 4 5 7 5 6 6 1 2 3 3 4 6 6 7 1 4 1 1 2 2 2 5 5
     4 3 3 7 6 5 7 7 7 6 1 4 2]
la matrice d'adjacence était :
 [[0 2 3 3 1 2 0 0 4 0 0 0 1 1 1 1 0 1 0 0 0 2 1 0 0 1 1 0 0 0 0 0 1 0 0 1 0
         3 1 1 0 0 1 1 0 1 0 0 1 0]
         [2 0 1 2 1 1 0 0 0 0 0 0 0 0 1 1 2 0 2 0 0 0 1 0 1 0 3 1 1 2 1 2 0
         0 0 0 0 0 0 1 0 0 0 0 0 0 0 0 1 0]
         [3 1 0 1 1 0 0 0 0 0 1 1 0 0 1 0 0 0 2 1 0 1 0 0 1 0 0 0 0 0 0 0 0
         0 0 0 1 1 0 0 0 0 0 1 0 1 0 0 1 1]
         [3 2 1 0 1 2 0 1 0 0 0 2 0 1 0 0 0 0 1 1 0 1 1 1 0 0 1 0 0 0 2 2 0
         0 0 0 0 0 0 0 0 1 0 2 0 0 0 0 0 0]
         [1 1 1 1 0 1 1 1 0 0 1 1 0 1 1 0 1 0 0 2 0 2 0 1 0 0 0 0 1 0 1 0 2
         0 0 0 0 2 0 1 1 2 0 0 1 0 0 1 1 1]
         [2 1 0 2 1 0 0 0 0 0 0 0 1 0 0 0 2 0 0 1 0 0 0 0 0 0 0 0 1 0 0 1 0
         1 0 1 0 0 0 0 1 0 0 0 1 0 0 1 0 0]
         [0 0 0 0 1 0 0 0 0 0 0 0 1 0 0 0 1 2 0 0 1 0 0 0 0 0 0 1 0 1 2 0 2
         0 0 1 2 1 0 0 0 1 0 0 0 2 1 0 1 0]
         [0 0 0 1 1 0 0 0 3 0 0 0 0 0 0 0 0 0 0 1 0 0 0 0 0 1 0 0 1 0 0 0 0
         1 0 0 2 0 0 0 0 0 0 0 0 0 0 0 0 1]
         [4 0 0 0 0 0 0 3 0 0 0 0 0 0 0 0 0 0 0 0 0 0 1 2 0 0 0 0 0 1 0 0 0
         0 0 0 0 2 0 0 0 0 0 0 0 0 0 0 1 0]
         [0 0 0 0 0 0 0 0 0 0 0 1 0 0 0 0 1 1 0 0 3 0 0 2 0 0 0 0 0 1 2 0 1
         1 2 0 1 1 0 0 0 0 0 0 3 1 0 0 1 1]
         [0 0 1 0 1 0 0 0 0 0 0 0 1 0 0 0 0 1 1 1 1 0 1 1 1 1 0 0 1 1 0 1 0
         1 0 0 1 0 1 0 0 0 0 0 0 0 0 0 0 0]
         [0 0 1 2 1 0 0 0 0 1 0 0 0 0 1 0 0 0 1 1 1 0 0 0 0 1 0 1 1 2 1 1 0
         0 0 0 1 0 0 0 0 0 0 1 0 2 0 1 0 0]
         [1 0 0 0 0 1 1 0 0 0 1 0 0 0 1 0 0 1 0 0 0 0 1 1 0 1 0 0 1 0 1 0 0
         0 0 0 0 1 0 0 1 0 2 1 1 2 1 0 2 0]
         [1 0 0 1 1 0 0 0 0 0 0 0 0 0 0 0 0 0 1 0 1 1 0 0 1 0 1 0 0 0 0 1 2
         0 2 1 0 0 0 0 0 2 1 0 1 1 0 1 1 0]
         [1 1 1 0 1 0 0 0 0 0 0 1 1 0 0 1 0 1 2 0 1 0 0 0 0 0 0 0 1 0 1 1 0
         0 0 0 0 0 0 0 0 1 0 0 1 1 0 1 0 1]
         [1 1 0 0 0 0 0 0 0 0 0 0 0 0 1 0 0 0 0 0 2 0 0 1 0 2 0 1 0 0 0 0 0
         0 0 0 0 0 1 0 0 0 0 2 1 0 0 2 0 0]
         [0 2 0 0 1 2 1 0 0 1 0 0 0 0 0 0 0 1 1 0 0 1 0 0 1 1 1 0 1 0 1 0 1
         1 1 0 0 1 1 0 0 1 0 0 0 0 0 0 1 0]
         [1 0 0 0 0 0 2 0 0 1 1 0 1 0 1 0 1 0 1 0 1 1 0 1 0 0 0 1 0 1 0 0 1
         1 0 0 0 0 2 0 0 1 0 0 1 1 0 0 0 0]
         [0 2 2 1 0 0 0 0 0 0 1 1 0 1 2 0 1 1 0 0 0 0 0 0 0 0 0 2 1 0 0 1 1
         0 1 1 0 1 0 0 0 0 0 1 1 0 0 0 0 0]
         [0 0 1 1 2 1 0 1 0 0 1 1 0 0 0 0 0 0 0 0 1 1 0 0 1 0 0 0 0 0 0 0 1
         0 1 1 2 0 1 0 0 0 0 0 0 1 0 2 0 0]
         [0 0 0 0 0 0 1 0 0 3 1 1 0 1 1 2 0 1 0 1 0 0 0 1 0 0 1 1 0 0 0 0 0
         0 2 0 1 1 0 1 0 0 0 0 1 1 0 0 0 0]
         [2 0 1 1 2 0 0 0 0 0 0 0 0 1 0 0 1 1 0 1 0 0 0 0 0 0 0 0 0 1 0 0 0
         0 0 0 1 0 1 0 0 0 0 0 1 0 0 1 1 0]
         [1 1 0 1 0 0 0 0 1 0 1 0 1 0 0 0 0 0 0 0 0 0 0 0 1 0 0 1 1 1 0 1 0
         1 0 1 0 1 0 0 0 0 0 0 0 0 0 0 0 0]
         [0 0 0 1 1 0 0 0 2 2 1 0 1 0 0 1 0 1 0 0 1 0 0 0 0 0 1 0 0 0 0 0 0
         0 1 2 0 0 0 0 1 0 0 0 0 0 2 1 0 1]
         [0 1 1 0 0 0 0 0 0 0 1 0 0 1 0 0 1 0 0 1 0 0 1 0 0 0 1 1 1 0 0 0 0
         0 0 1 0 0 1 1 1 1 0 0 1 1 0 0 0 1]
         [1 0 0 0 0 0 0 1 0 0 1 1 1 0 0 2 1 0 0 0 0 0 0 0 0 0 0 1 1 0 2 0 0
         1 0 1 1 1 0 0 0 0 0 0 0 1 0 0 0 1]
         [1 3 0 1 0 0 0 0 0 0 0 0 0 1 0 0 1 0 0 0 1 0 0 1 1 0 0 1 0 1 0 1 0
         0 0 0 1 1 0 1 0 0 0 0 0 0 0 2 0 1]
         [0 1 0 0 0 0 1 0 0 0 0 1 0 0 0 1 0 1 2 0 1 0 1 0 1 1 1 0 2 0 0 0 0
         0 0 0 0 1 0 0 0 0 0 0 0 0 0 1 1 0]
         [0 1 0 0 1 1 0 1 0 0 1 1 1 0 1 0 1 0 1 0 0 0 1 0 1 1 0 2 0 1 0 0 0
         0 0 1 2 0 0 0 2 0 0 0 1 0 0 0 1 0]
         [0 2 0 0 0 0 1 0 1 1 1 2 0 0 0 0 0 1 0 0 0 1 1 0 0 0 1 0 1 0 0 1 0
         1 0 0 1 0 0 0 1 0 0 1 1 2 0 1 0 0]
         [0 1 0 2 1 0 2 0 0 2 0 1 1 0 1 0 1 0 0 0 0 0 0 0 0 2 0 0 0 0 0 0 0
         1 1 0 0 1 1 2 1 1 0 0 1 0 0 0 0 1]
         [0 2 0 2 0 1 0 0 0 0 1 1 0 1 1 0 0 0 1 0 0 0 1 0 0 0 1 0 0 1 0 0 0
         0 0 2 1 1 0 1 0 0 0 1 0 0 1 0 0 0]
         [1 0 0 0 2 0 2 0 0 1 0 0 0 2 0 0 1 1 1 1 0 0 0 0 0 0 0 0 0 0 0 0 0
         0 0 1 1 1 3 1 0 1 0 0 2 1 0 0 1 0]
         [0 0 0 0 0 1 0 1 0 1 1 0 0 0 0 0 1 1 0 0 0 0 1 0 0 1 0 0 0 1 1 0 0
         0 0 0 0 0 0 0 0 1 0 0 0 0 0 2 0 0]
         [0 0 0 0 0 0 0 0 0 2 0 0 0 2 0 0 1 0 1 1 2 0 0 1 0 0 0 0 0 0 1 0 0
         0 0 0 0 0 0 1 0 1 0 0 0 0 0 0 0 0]
         [1 0 0 0 0 1 1 0 0 0 0 0 0 1 0 0 0 0 1 1 0 0 1 2 1 1 0 0 1 0 0 2 1
         0 0 0 0 2 0 0 1 1 0 0 0 0 0 0 0 1]
         [0 0 1 0 0 0 2 2 0 1 1 1 0 0 0 0 0 0 0 2 1 1 0 0 0 1 1 0 2 1 0 1 1
         0 0 0 0 1 0 1 0 0 0 2 0 1 1 0 0 0]
         [3 0 1 0 2 0 1 0 2 1 0 0 1 0 0 0 1 0 1 0 1 0 1 0 0 1 1 1 0 0 1 1 1
         0 0 2 1 0 0 1 0 1 0 0 0 0 0 0 0 0]
         [1 0 0 0 0 0 0 0 0 0 1 0 0 0 0 1 1 2 0 1 0 1 0 0 1 0 0 0 0 0 1 0 3
         0 0 0 0 0 0 0 0 0 1 0 0 1 1 1 1 2]
         [1 1 0 0 1 0 0 0 0 0 0 0 0 0 0 0 0 0 0 0 1 0 0 0 1 0 1 0 0 0 2 1 1
         0 1 0 1 1 0 0 0 0 1 0 1 0 0 0 1 1]
         [0 0 0 0 1 1 0 0 0 0 0 0 1 0 0 0 0 0 0 0 0 0 0 1 1 0 0 0 2 1 1 0 0
         0 0 1 0 0 0 0 0 1 0 0 0 0 0 0 0 0]
         [0 0 0 1 2 0 1 0 0 0 0 0 0 2 1 0 1 1 0 0 0 0 0 0 1 0 0 0 0 0 1 0 1
         1 1 1 0 1 0 0 1 0 0 1 1 1 0 1 1 1]
         [1 0 0 0 0 0 0 0 0 0 0 0 2 1 0 0 0 0 0 0 0 0 0 0 0 0 0 0 0 0 0 0 0
         0 0 0 0 0 1 1 0 0 0 0 0 1 1 1 1 0]
         [1 0 1 2 0 0 0 0 0 0 0 1 1 0 0 2 0 0 1 0 0 0 0 0 0 0 0 0 0 1 0 1 0
         0 0 0 2 0 0 0 0 1 0 0 0 0 0 2 1 1]
         [0 0 0 0 1 1 0 0 0 3 0 0 1 1 1 1 0 1 1 0 1 1 0 0 1 0 0 0 1 1 1 0 2
         0 0 0 0 0 0 1 0 1 0 0 0 0 0 0 0 0]
         [1 0 1 0 0 0 2 0 0 1 0 2 2 1 1 0 0 1 0 1 1 0 0 0 1 1 0 0 0 2 0 0 1
         0 0 0 1 0 1 0 0 1 1 0 0 0 0 0 0 0]
         [0 0 0 0 0 0 1 0 0 0 0 0 1 0 0 0 0 0 0 0 0 0 0 2 0 0 0 0 0 0 0 1 0
         0 0 0 1 0 1 0 0 0 1 0 0 0 0 1 2 0]
         [0 0 0 0 1 1 0 0 0 0 0 1 0 1 1 2 0 0 0 2 0 1 0 1 0 0 2 1 0 1 0 0 0
         2 0 0 0 0 1 0 0 1 1 2 0 0 1 0 1 1]
         [1 1 1 0 1 0 1 0 1 1 0 0 2 1 0 0 1 0 0 0 0 1 0 0 0 0 0 1 1 0 0 0 1
         0 0 0 0 0 1 1 0 1 1 1 0 0 2 1 0 0]
         [0 0 1 0 1 0 0 1 0 1 0 0 0 0 1 0 0 0 0 0 0 0 0 1 1 1 1 0 0 0 1 0 0
         0 0 1 0 0 2 1 0 1 0 1 0 0 0 1 0 0]]

<<< post process


<<< done

